20	5
0	9	9	7	2	3	5	8	4	1	6
1	1	20
2	2	15	10
3	2	14	12
4	2	12	18
5	2	20	19
6	2	12	13
7	1	14
8	2	12	11
9	3	12	17	13
10	1	19
11	1	20
12	2	10	20
13	1	10
14	1	17
15	2	19	14
16	1	21
17	1	16
18	2	15	10
19	1	21
20	1	21
21	0
0	0	0	0	0	0	0
1	5	0	1	0	0	0
2	10	0	0	0	1	4
3	6	3	1	3	0	0
4	5	5	0	0	0	5
5	2	0	0	3	2	4
6	6	0	0	5	1	3
7	7	0	3	4	2	4
8	6	0	1	0	5	2
9	9	0	4	5	3	5
10	3	0	0	0	0	1
11	2	0	3	0	1	0
12	7	0	2	5	4	3
13	9	0	0	1	0	0
14	7	1	1	5	0	0
15	10	5	0	1	0	0
16	8	2	0	2	2	0
17	8	0	1	0	5	0
18	10	2	0	4	0	0
19	6	0	0	0	2	0
20	3	3	1	0	2	2
21	0	0	0	0	0	0
5	5	5	5	5
